benchmarks_vrp/CMT1/fixed_c_size/CMT1_1.vrp
NAME: CMT1_1
TYPE: CVRP
COMMENT: 524.61 - Cluster Nr.1
DIMENSION: 13
CAPACITY: 160
EDGE_WEIGHT_TYPE: EUC_2D
NODE_COORD_TYPE: TWOD_COORDS
NODE_COORD_SECTION: 
1 46 10
12 40 30
7 52 33
2 36 16
6 48 28
10 56 37
13 45 35
5 39 10
11 61 33
3 30 40
8 51 21
4 59 15
9 58 27
DEPOT_SECTION: 
3
-1
DEMAND_SECTION: 
9 19
6 18
1 23
7 11
12 21
8 5
3 0
4 14
5 10
13 15
10 10
2 10
11 26
EOF
